%%%%%%%%%%%%%%%%%%%%%%%%%%%%%%%%%%%%%%%%%%%%%%%%%%%%%%%%%%%%%%%%%%%%%%%%%
%FILE DATA:	Soccer Computational Problem for MiniZinc Models	%
%AUTHORS:	Robinson Duque, Alejandro Arbelaez, Juan Francisco Díaz	%
%CONTACT:  	robinson.duque@correounivalle.edu.co			%
%LAST UPDATE:	October, 2016						%
%DESCRIPTION: 	fixture 15 with 5 suppositions				%
%%%%%%%%%%%%%%%%%%%%%%%%%%%%%%%%%%%%%%%%%%%%%%%%%%%%%%%%%%%%%%%%%%%%%%%%%
n=30;%number of teams

%For the purpose of our models, we offer two representations of the games to play, namely fixtures and games:

%Fixtures to play:
fixtures=[|0,0,0,1,0,0,0,1,2,1,1,0,0,1,1,1,0,1,1,0,0,1,1,0,1,0,1,0,0,0
|0,0,1,0,1,1,1,0,1,0,0,1,1,0,0,0,0,1,1,0,1,0,1,1,0,0,1,1,1,0
|0,1,0,1,1,0,1,1,0,2,0,1,0,0,0,0,0,0,1,0,1,0,1,1,1,0,1,1,0,0
|1,0,1,0,0,2,0,0,0,0,0,1,1,0,1,1,1,0,0,1,0,1,0,1,0,1,0,0,1,1
|0,1,1,0,0,1,1,0,1,0,0,1,1,0,0,1,0,0,1,1,1,0,1,1,0,0,0,1,1,0
|0,1,0,2,1,0,1,1,0,1,1,0,0,1,0,0,0,0,1,0,1,0,1,0,1,0,1,1,0,0
|0,1,1,0,1,1,0,0,1,0,0,1,1,0,0,0,0,0,0,1,1,1,1,1,0,1,0,1,1,0
|1,0,1,0,0,1,0,0,0,0,0,1,1,0,1,1,1,1,0,1,0,1,0,0,0,1,0,0,2,1
|2,1,0,0,1,0,1,0,0,0,1,1,1,1,1,1,0,1,0,0,1,1,0,1,0,0,0,0,0,0
|1,0,2,0,0,1,0,0,0,0,0,0,1,1,1,1,1,1,0,1,0,1,0,0,0,1,0,0,1,1
|1,0,0,0,0,1,0,0,1,0,0,1,0,1,1,1,1,1,0,1,0,1,0,0,1,1,0,0,1,1
|0,1,1,1,1,0,1,1,1,0,1,0,1,0,0,0,0,0,1,0,1,0,1,1,0,0,1,1,0,0
|0,1,0,1,1,0,1,1,1,1,0,1,0,0,0,0,0,0,1,0,1,0,1,1,1,0,1,1,0,0
|1,0,0,0,0,1,0,0,1,1,1,0,0,0,1,1,1,1,0,1,0,1,0,1,1,1,0,0,0,1
|1,0,0,1,0,0,0,1,1,1,1,0,0,1,0,1,0,1,1,0,1,1,0,0,1,0,1,0,0,1
|1,0,0,1,1,0,0,1,1,1,1,0,0,1,1,0,1,1,0,0,0,1,0,0,1,1,0,0,0,1
|0,0,0,1,0,0,0,1,0,1,1,0,0,1,0,1,0,1,1,0,1,1,2,0,1,0,1,1,0,0
|1,1,0,0,0,0,0,1,1,1,1,0,0,1,1,1,1,0,0,1,0,1,0,0,1,1,0,0,0,1
|1,1,1,0,1,1,0,0,0,0,0,1,1,0,1,0,1,0,0,1,0,0,0,1,0,2,0,0,1,1
|0,0,0,1,1,0,1,1,0,1,1,0,0,1,0,0,0,1,1,0,1,0,1,0,1,0,2,1,0,0
|0,1,1,0,1,1,1,0,1,0,0,1,1,0,1,0,1,0,0,1,0,0,0,1,0,1,0,1,1,0
|1,0,0,1,0,0,1,1,1,1,1,0,0,1,1,1,1,1,0,0,0,0,0,0,1,0,1,0,0,1
|1,1,1,0,1,1,1,0,0,0,0,1,1,0,0,0,2,0,0,1,0,0,0,1,0,1,0,0,1,1
|0,1,1,1,1,0,1,0,1,0,0,1,1,1,0,0,0,0,1,0,1,0,1,0,0,0,1,1,1,0
|1,0,1,0,0,1,0,0,0,0,1,0,1,1,1,1,1,1,0,1,0,1,0,0,0,1,0,0,1,1
|0,0,0,1,0,0,1,1,0,1,1,0,0,1,0,1,0,1,2,0,1,0,1,0,1,0,1,1,0,0
|1,1,1,0,0,1,0,0,0,0,0,1,1,0,1,0,1,0,0,2,0,1,0,1,0,1,0,0,1,1
|0,1,1,0,1,1,1,0,0,0,0,1,1,0,0,0,1,0,0,1,1,0,0,1,0,1,0,0,1,2
|0,1,0,1,1,0,1,2,0,1,1,0,0,0,0,0,0,0,1,0,1,0,1,1,1,0,1,1,0,0
|0,0,0,1,0,0,0,1,0,1,1,0,0,1,1,1,0,1,1,0,0,1,1,0,1,0,1,2,0,0|];

%Games to play:
games=[|3,2|4,1|4,3|5,2|5,3|6,2|6,4|6,4|6,5|7,2|7,3|7,5|7,6|8,1|8,3|8,6|9,1|9,1|9,2|9,5|9,7|10,1|10,3|10,3|10,6|11,1|11,6|11,9|12,2|12,3|12,4|12,5|12,7|12,8|12,9|12,11|13,2|13,4|13,5|13,7|13,8|13,9|13,10|13,12|14,1|14,6|14,9|14,10|14,11|15,1|15,4|15,8|15,9|15,10|15,11|15,14|16,1|16,4|16,5|16,8|16,9|16,10|16,11|16,14|16,15|17,4|17,8|17,10|17,11|17,14|17,16|18,1|18,2|18,8|18,9|18,10|18,11|18,14|18,15|18,16|18,17|19,1|19,2|19,3|19,5|19,6|19,12|19,13|19,15|19,17|20,4|20,5|20,7|20,8|20,10|20,11|20,14|20,18|20,19|21,2|21,3|21,5|21,6|21,7|21,9|21,12|21,13|21,15|21,17|21,20|22,1|22,4|22,7|22,8|22,9|22,10|22,11|22,14|22,15|22,16|22,17|22,18|23,1|23,2|23,3|23,5|23,6|23,7|23,12|23,13|23,17|23,17|23,20|24,2|24,3|24,4|24,5|24,7|24,9|24,12|24,13|24,14|24,19|24,21|24,23|25,1|25,3|25,6|25,11|25,13|25,14|25,15|25,16|25,17|25,18|25,20|25,22|26,4|26,7|26,8|26,10|26,11|26,14|26,16|26,18|26,19|26,19|26,21|26,23|26,25|27,1|27,2|27,3|27,6|27,12|27,13|27,15|27,17|27,20|27,20|27,22|27,24|27,26|28,2|28,3|28,5|28,6|28,7|28,12|28,13|28,17|28,20|28,21|28,24|28,26|29,2|29,4|29,5|29,7|29,8|29,8|29,10|29,11|29,19|29,21|29,23|29,24|29,25|29,27|29,28|30,4|30,8|30,10|30,11|30,14|30,15|30,16|30,18|30,19|30,22|30,23|30,25|30,27|30,28|30,28|];

%%Initial points:
iPoints=[21,21,11,12,22,27,29,17,13,12,23,23,17,13,20,21,20,6,11,15,30,34,28,32,19,18,17,26,21,18];

%POSITION CONSTRAINTS
% [|teamID, operator, position|...]
% operators index:
%  1 for =  operator
%  2 for >  operator
%  3 for >= operator
%  4 for <  operator
%  5 for <= operator
positionConstraints=[|22,3,25|6,1,24|15,5,1|14,3,17|24,2,13|];

%RELATIVE POSITION CONSTRAINTS
% [|team1ID, operator, team2ID|...]
% operators index:
%  1 for =  operator
%  2 for >  operator
%  3 for >= operator
%  4 for <  operator
%  5 for <= operator
relativeConstraints=[|0|]; %No constraints


%FINAL POINT CONSTRAINTS
% [|teamID, operator, wantedPoints|...]
% operators index:
%  1 for =  operator
%  2 for >  operator
%  3 for >= operator
%  4 for <  operator
%  5 for <= operator
finalPointConstraints=[|0|]; %No constraints


